c 
c G(n,p) graph
c graph gen seed     : 7101
c number of vertices : 70
c max number of edges: 2415
c edge probability   : 0.200000
c data structure     : sparse
c
c           Graph Stats
c number of vertices  : 70
c nonisolated vertices: 70
c number of edges     : 466
c edge density        : 0.192961
c max degree          : 23
c avg degree          : 13.31
c min degree          : 6
p col 70 466
e 1 70
e 1 67
e 1 65
e 1 56
e 1 48
e 1 29
e 1 19
e 1 18
e 1 12
e 1 8
e 1 5
e 1 3
e 2 69
e 2 66
e 2 62
e 2 51
e 2 39
e 2 38
e 2 32
e 2 31
e 2 15
e 3 56
e 3 50
e 3 44
e 3 40
e 3 32
e 3 29
e 3 26
e 3 21
e 3 14
e 3 12
e 3 9
e 3 7
e 4 68
e 4 52
e 4 44
e 4 40
e 4 34
e 4 20
e 4 12
e 5 68
e 5 66
e 5 62
e 5 57
e 5 42
e 5 33
e 5 27
e 5 21
e 5 19
e 5 17
e 5 13
e 6 66
e 6 64
e 6 62
e 6 58
e 6 46
e 6 44
e 6 43
e 6 39
e 6 38
e 6 30
e 6 26
e 6 22
e 6 17
e 6 16
e 6 11
e 7 67
e 7 64
e 7 62
e 7 55
e 7 54
e 7 50
e 7 48
e 7 42
e 7 39
e 7 38
e 7 36
e 7 32
e 7 31
e 7 30
e 7 29
e 7 17
e 7 15
e 7 14
e 8 65
e 8 64
e 8 52
e 8 50
e 8 45
e 8 40
e 8 20
e 8 19
e 8 17
e 8 14
e 8 12
e 9 70
e 9 69
e 9 68
e 9 55
e 9 41
e 9 40
e 9 39
e 9 34
e 9 29
e 9 28
e 9 26
e 9 15
e 10 67
e 10 66
e 10 62
e 10 59
e 10 52
e 10 45
e 10 44
e 10 40
e 10 37
e 10 34
e 10 17
e 11 69
e 11 60
e 11 57
e 11 56
e 11 45
e 11 41
e 11 40
e 11 39
e 11 28
e 11 19
e 11 15
e 12 66
e 12 65
e 12 62
e 12 60
e 12 53
e 12 45
e 12 31
e 12 25
e 12 17
e 12 14
e 12 13
e 13 68
e 13 67
e 13 55
e 13 52
e 13 45
e 13 36
e 13 32
e 13 29
e 13 28
e 13 26
e 13 22
e 13 21
e 14 65
e 14 50
e 14 43
e 14 36
e 14 33
e 14 25
e 14 22
e 15 64
e 15 63
e 15 57
e 15 56
e 15 54
e 15 51
e 15 43
e 15 41
e 15 33
e 15 18
e 16 69
e 16 67
e 16 63
e 16 59
e 16 56
e 16 49
e 16 48
e 16 47
e 16 36
e 16 34
e 17 64
e 17 62
e 17 58
e 17 54
e 17 52
e 17 48
e 17 47
e 17 37
e 17 36
e 17 35
e 17 34
e 17 21
e 18 67
e 18 65
e 18 63
e 18 57
e 18 55
e 18 47
e 18 46
e 18 44
e 18 38
e 18 36
e 18 34
e 18 33
e 18 21
e 19 64
e 19 60
e 19 57
e 19 56
e 19 55
e 19 48
e 19 44
e 19 42
e 19 40
e 19 39
e 19 37
e 19 34
e 19 33
e 19 30
e 19 29
e 19 20
e 20 66
e 20 50
e 20 42
e 20 37
e 20 32
e 20 28
e 21 63
e 21 56
e 21 55
e 21 46
e 21 30
e 21 29
e 21 25
e 21 24
e 22 64
e 22 63
e 22 58
e 22 50
e 22 47
e 22 45
e 22 43
e 22 41
e 22 39
e 22 25
e 23 66
e 23 58
e 23 54
e 23 53
e 23 50
e 23 44
e 23 34
e 23 32
e 24 69
e 24 66
e 24 55
e 24 49
e 24 47
e 24 44
e 24 29
e 24 28
e 25 44
e 25 41
e 25 40
e 25 39
e 25 37
e 25 34
e 25 33
e 26 68
e 26 58
e 26 50
e 26 47
e 26 43
e 26 37
e 26 30
e 26 27
e 27 66
e 27 60
e 27 56
e 27 52
e 27 47
e 27 45
e 27 44
e 27 41
e 27 38
e 27 37
e 27 36
e 27 32
e 27 30
e 28 60
e 28 59
e 28 57
e 28 52
e 28 48
e 28 41
e 28 37
e 29 67
e 29 56
e 29 46
e 29 44
e 29 43
e 29 39
e 29 37
e 30 67
e 30 62
e 30 61
e 30 59
e 30 52
e 30 45
e 30 44
e 30 39
e 30 36
e 30 31
e 31 64
e 31 63
e 31 58
e 31 48
e 31 46
e 31 34
e 32 67
e 32 57
e 32 56
e 32 55
e 32 47
e 32 44
e 32 40
e 32 37
e 33 54
e 33 52
e 33 45
e 33 37
e 33 34
e 34 70
e 34 63
e 34 59
e 34 55
e 34 44
e 34 39
e 35 68
e 35 65
e 35 57
e 35 54
e 35 48
e 36 70
e 36 66
e 36 65
e 36 64
e 36 62
e 36 60
e 36 53
e 36 44
e 37 66
e 37 65
e 37 64
e 37 54
e 37 52
e 37 50
e 37 44
e 37 41
e 38 69
e 38 66
e 38 61
e 38 60
e 38 59
e 38 58
e 38 54
e 38 53
e 39 66
e 39 62
e 39 57
e 39 47
e 39 44
e 39 41
e 39 40
e 40 69
e 40 66
e 40 61
e 40 55
e 40 52
e 40 46
e 40 43
e 40 41
e 41 68
e 41 61
e 41 56
e 41 53
e 41 50
e 41 47
e 42 66
e 42 65
e 42 61
e 42 57
e 43 63
e 43 62
e 43 61
e 43 56
e 43 55
e 43 53
e 43 51
e 43 47
e 43 44
e 44 62
e 44 61
e 44 59
e 44 54
e 44 52
e 45 69
e 45 55
e 45 53
e 45 49
e 46 56
e 46 50
e 47 64
e 47 60
e 47 56
e 47 52
e 48 66
e 48 57
e 49 55
e 49 54
e 49 50
e 50 63
e 50 62
e 50 60
e 50 58
e 50 57
e 50 56
e 50 55
e 51 64
e 51 59
e 51 57
e 51 56
e 51 55
e 52 69
e 52 66
e 52 63
e 52 61
e 53 68
e 53 66
e 53 63
e 53 57
e 54 63
e 54 62
e 54 60
e 55 62
e 55 60
e 56 63
e 56 62
e 56 61
e 57 63
e 57 59
e 57 58
e 58 68
e 58 61
e 58 59
e 59 69
e 59 62
e 60 69
e 60 62
e 61 67
e 61 66
e 61 63
e 62 67
e 62 64
e 64 68
e 65 70
e 69 70
